160 20 193 199 50 169 129 100 54 46 83 127 41 107 30 190 180 110 44 189 164 150 70 195 158 165 149 32 28 1 4 15 13 33 51 179 3 69 111 197 119 154 85 159 148 9 121 10 188 76 26 166 45 162 52 116 124 135 75 29 146 191 12 67 24 113 103 136 57 133 101 156 94 117 92 187 38 132 183 48 141 82 95 18 91 143 112 58 14 176 89 22 157 84 8 5 163 175 198 98 21 177 59 102 11 81 27 74 147 93 88 144 66 17 126 36 134 34 114 151 155 108 137 16 142 184 73 19 167 109 86 2 161 118 171 96 61 31 115 173 186 172 77 43 53 65 25 97 0 87 120 99 64 37 152 78 60 40 35 62 106 105 47 185 178 182 6 128 123 174 90 56 140 79 104 63 71 49 192 23 170 194 153 122 125 55 168 181 68 131 80 7 196 139 42 138 72 39 145 130 

